n_res = 4;
rc = [ 15, 11, 12, 18 ];
n_tasks = 30;
d = [ 1, 2, 2, 2, 1, 2, 10, 8, 5, 4, 1, 3, 10, 1, 6, 4, 7, 10, 10, 10, 9, 10, 4, 2, 7, 4, 4, 5, 10, 9 ];
rr = [| 0, 0, 0, 0, 0, 0, 0, 0, 0, 0, 3, 0, 7, 10, 0, 0, 0, 0, 5, 0, 2, 0, 0, 3, 0, 10, 0, 0, 8, 0
      | 0, 1, 0, 2, 8, 1, 0, 0, 0, 0, 0, 2, 0, 0, 0, 0, 0, 3, 0, 6, 0, 0, 1, 0, 0, 0, 0, 0, 0, 0
      | 3, 0, 10, 0, 0, 0, 6, 1, 0, 3, 0, 0, 0, 0, 10, 0, 0, 0, 0, 0, 0, 4, 0, 0, 0, 0, 7, 0, 0, 0
      | 0, 0, 0, 0, 0, 0, 0, 0, 3, 0, 0, 0, 0, 0, 0, 4, 10, 0, 0, 0, 0, 0, 0, 0, 4, 0, 0, 7, 0, 6 |];
suc = [ { 2 }, 
        { 3 }, 
        { 4 }, 
        { 5 }, 
        { 6 }, 
        { 7 }, 
        { 8 }, 
        { 9 }, 
        { 10 }, 
        { 11 }, 
        { 12 }, 
        { 13 }, 
        { 14 }, 
        { 15 }, 
        { 16 }, 
        { 17 }, 
        { 18 }, 
        { 19 }, 
        { 20 }, 
        { 21 }, 
        { 22 }, 
        { 23 }, 
        { 24 }, 
        { 25 }, 
        { 26 }, 
        { 27 }, 
        { 28 }, 
        { 29 }, 
        { 30 }, 
        {  }]; 
